L=18;
no=12;
njo=[10,9,9,9,10,10,8,10,8,8,9,8];
djo=[24,16,15,25,22,18,18,28,18,16,18,30];
trab=[4,12,3,12,4,6,4,4,6,18,6,2,18,3,3,6,3,2,2,6,12,3,2,4,4,6,6,6,2,2,2,3,6,2,6,12,2,2,6,2,2,18,3,6,2,6,6,2,3,12,6,2,4,4,3,3,2,6,3,2,12,3,3,4,3,18,2,6,2,6,2,6,2,2,12,18,6,2,2,2,12,4,6,6,6,12,3,2,3,4,2,3,2,18,18,6,18,6,6,3,6,6,2,3,6,3,6,6,3,2,2,2,2,6,6,3,4,12,6,3,3,6,6,3,12,3,3,3,2,3,3,4,18,3,3,2,6,6,2,6,3,2,2,6,4,12,12,4,6,6,18,2,6,4,2,4,2,3,2,4,12,3,6,12,2,3,6,12,3,3,4,6,4,3,2,12,2,2,4,2,3,6,3,6,2,12,18,2,2,6,3,18,2,18,6,6,6,3,2,12,12,3,12,6,4,6,3,12,6,4,2,4,6,2,2,2,6,2,18,4,6,18,2,4,12,12,2,18,3,6,6,3,2,3,6,6,2,4,6,6,3,6,4,12,2,6,2,6];
nprec=25;
prec=[| 7, 15,
      | 10, 16,
      | 15, 20,
      | 17, 22,
      | 18, 24,
      | 23, 30,
      | 24, 34,
      | 26, 37,
      | 30, 43,
      | 34, 47,
      | 39, 56,
      | 41, 57,
      | 50, 58,
      | 53, 62,
      | 54, 65,
      | 60, 69,
      | 61, 70,
      | 67, 83,
      | 77, 89,
      | 81, 91,
      | 87, 97,
      | 90, 100,
      | 95, 106,
      | 96, 107,
      | 100, 108 |];


%%%%%%%%%%%%%%%%%%%%%%%%%%%%%%%%%%%%%%%%%%%%%%%%%%%%%%%%%%%%%%%%%%%%%%
% 12
%
% 10   1  10  24 145
%  4  12   3  12   4   6   4   4   6  18   6   2  18   3   3   6   3   2   2   6  12   3   2   4 
%  1   1   1   0   0
%  1   2   2   0   0
%  1   3   3   0   0
%  1   4   4   0   0
%  1   5   5   0   0
%  1   6   6   0   0
%  1   7   7   0   1
%      2   5  15
%  1   8   8   0   0
%  1   9   9   0   0
%  1  10  10   0   1
%      2   6  16
%
%  9  11  19  16  69
%  4   6   6   6   2   2   2   3   6   2   6  12   2   2   6   2 
%  2   1  11   0   0
%  2   2  12   0   0
%  2   3  13   0   0
%  2   4  14   0   0
%  2   5  15   1   1
%      1   7   7
%      3   1  20
%  2   6  16   1   0
%      1  10  10
%  2   7  17   0   1
%      3   3  22
%  2   8  18   0   1
%      3   5  24
%  2   9  19   0   0
%
%  9  20  28  15  79
%  2  18   3   6   2   6   6   2   3  12   6   2   4   4   3 
%  3   1  20   1   0
%      2   5  15
%  3   2  21   0   0
%  3   3  22   1   0
%      2   7  17
%  3   4  23   0   1
%      4   2  30
%  3   5  24   1   1
%      2   8  18
%      4   6  34
%  3   6  25   0   0
%  3   7  26   0   1
%      4   9  37
%  3   8  27   0   0
%  3   9  28   0   0
%
%  9  29  37  25 129
%  3   2   6   3   2  12   3   3   4   3  18   2   6   2   6   2   6   2   2  12  18   6   2   2   2 
%  4   1  29   0   0
%  4   2  30   1   1
%      3   4  23
%      5   6  43
%  4   3  31   0   0
%  4   4  32   0   0
%  4   5  33   0   0
%  4   6  34   1   1
%      3   5  24
%      5  10  47
%  4   7  35   0   0
%  4   8  36   0   0
%  4   9  37   1   0
%      3   7  26
%
% 10  38  47  22 152
% 12   4   6   6   6  12   3   2   3   4   2   3   2  18  18   6  18   6   6   3   6   6 
%  5   1  38   0   0
%  5   2  39   0   1
%      6   9  56
%  5   3  40   0   0
%  5   4  41   0   1
%      6  10  57
%  5   5  42   0   0
%  5   6  43   1   0
%      4   2  30
%  5   7  44   0   0
%  5   8  45   0   0
%  5   9  46   0   0
%  5  10  47   1   0
%      4   6  34
%
% 10  48  57  18  77
%  2   3   6   3   6   6   3   2   2   2   2   6   6   3   4  12   6   3 
%  6   1  48   0   0
%  6   2  49   0   0
%  6   3  50   0   1
%      7   1  58
%  6   4  51   0   0
%  6   5  52   0   0
%  6   6  53   0   1
%      7   5  62
%  6   7  54   0   1
%      7   8  65
%  6   8  55   0   0
%  6   9  56   1   0
%      5   2  39
%  6  10  57   1   0
%      5   4  41
%
%  8  58  65  18  89
%  3   6   6   3  12   3   3   3   2   3   3   4  18   3   3   2   6   6 
%  7   1  58   1   0
%      6   3  50
%  7   2  59   0   0
%  7   3  60   0   1
%      8   4  69
%  7   4  61   0   1
%      8   5  70
%  7   5  62   1   0
%      6   6  53
%  7   6  63   0   0
%  7   7  64   0   0
%  7   8  65   1   0
%      6   7  54
%
% 10  66  75  28 150
%  2   6   3   2   2   6   4  12  12   4   6   6  18   2   6   4   2   4   2   3   2   4  12   3   6  12   2   3 
%  8   1  66   0   0
%  8   2  67   0   1
%      9   8  83
%  8   3  68   0   0
%  8   4  69   1   0
%      7   3  60
%  8   5  70   1   0
%      7   4  61
%  8   6  71   0   0
%  8   7  72   0   0
%  8   8  73   0   0
%  8   9  74   0   0
%  8  10  75   0   0
%
%  8  76  83  18  83
%  6  12   3   3   4   6   4   3   2  12   2   2   4   2   3   6   3   6 
%  9   1  76   0   0
%  9   2  77   0   1
%     10   6  89
%  9   3  78   0   0
%  9   4  79   0   0
%  9   5  80   0   0
%  9   6  81   0   1
%     10   8  91
%  9   7  82   0   0
%  9   8  83   1   0
%      8   2  67
%
%  8  84  91  16 118
%  2  12  18   2   2   6   3  18   2  18   6   6   6   3   2  12 
% 10   1  84   0   0
% 10   2  85   0   0
% 10   3  86   0   0
% 10   4  87   0   1
%     11   6  97
% 10   5  88   0   0
% 10   6  89   1   0
%      9   2  77
% 10   7  90   0   1
%     11   9 100
% 10   8  91   1   0
%      9   6  81
%
%  9  92 100  18  94
% 12   3  12   6   4   6   3  12   6   4   2   4   6   2   2   2   6   2 
% 11   1  92   0   0
% 11   2  93   0   0
% 11   3  94   0   0
% 11   4  95   0   1
%     12   6 106
% 11   5  96   0   1
%     12   7 107
% 11   6  97   1   0
%     10   4  87
% 11   7  98   0   0
% 11   8  99   0   0
% 11   9 100   1   1
%     10   7  90
%     12   8 108
%
%  8 101 108  30 190
% 18   4   6  18   2   4  12  12   2  18   3   6   6   3   2   3   6   6   2   4   6   6   3   6   4  12   2   6   2   6 
% 12   1 101   0   0
% 12   2 102   0   0
% 12   3 103   0   0
% 12   4 104   0   0
% 12   5 105   0   0
% 12   6 106   1   0
%     11   4  95
% 12   7 107   1   0
%     11   5  96
% 12   8 108   1   0
%     11   9 100
%
%502
